
List of user-set options:

                                    Name   Value                used
                           compl_inf_tol = 1                     yes
                         constr_viol_tol = 1                     yes
                            dual_inf_tol = 1000                  yes
                           linear_solver = ma97                  yes
                              ma86_small = 1e-30                  no
                                  ma86_u = 0.0001                 no
                              ma97_order = best                  yes
                              ma97_small = 1e-30                 yes
                            ma97_switch1 = at_start              yes
                            ma97_switch2 = od_hd_reuse           yes
                                  ma97_u = 1e-06                 yes
                               ma97_umax = 0.5                   yes
                                max_iter = 2000                  yes
                    max_refinement_steps = 20                    yes
                    min_refinement_steps = 5                     yes
                                 mu_init = 1e-06                 yes
           mu_superlinear_decrease_power = 1.25                  yes
                   nlp_scaling_min_value = 1e-08                 yes
                        option_file_name = Preset_Case:_315_NCP.opt  yes
                             output_file = ./tmp/Preset_Case:_315_NCP.output  yes
                      print_user_options = yes                   yes
        required_infeasibility_reduction = 1                      no
                                     tol = 1e-08                 yes
                   warm_start_bound_frac = 1e-20                 yes
                   warm_start_bound_push = 1e-20                 yes
                   warm_start_init_point = yes                   yes
              warm_start_mult_bound_push = 1e-20                 yes
                warm_start_mult_init_max = 1e+40                 yes
             warm_start_slack_bound_frac = 1e-20                 yes
             warm_start_slack_bound_push = 1e-20                 yes

******************************************************************************
This program contains Ipopt, a library for large-scale nonlinear optimization.
 Ipopt is released as open source code under the Eclipse Public License (EPL).
         For more information visit http://projects.coin-or.org/Ipopt
******************************************************************************

This is Ipopt version 3.12.10, running with linear solver ma97.

Number of nonzeros in equality constraint Jacobian...:   117140
Number of nonzeros in inequality constraint Jacobian.:      213
Number of nonzeros in Lagrangian Hessian.............:    47462

Total number of variables............................:    29971
                     variables with only lower bounds:    11312
                variables with lower and upper bounds:    15132
                     variables with only upper bounds:        0
Total number of equality constraints.................:    29864
Total number of inequality constraints...............:       25
        inequality constraints with only lower bounds:        4
   inequality constraints with lower and upper bounds:        0
        inequality constraints with only upper bounds:       21

iter    objective    inf_pr   inf_du lg(mu)  ||d||  lg(rg) alpha_du alpha_pr  ls
   0 -4.0525011e-02 4.02e-01 1.00e+00  -6.0 0.00e+00    -  0.00e+00 0.00e+00   0
   1r-4.0525011e-02 4.02e-01 9.99e+02  -0.4 0.00e+00  -4.0 0.00e+00 8.45e-23R 17
In iteration 1, 22 Slacks too small, adjusting variable bounds
   2r-4.0525011e-02 4.02e-01 9.99e+02  -0.4 5.70e+11    -  1.95e-14 2.49e-20f  1
   3r-4.0526580e-02 4.02e-01 4.02e+03  -0.4 2.03e+05    -  1.25e-08 4.73e-09f  1
   4r-4.0526580e-02 4.02e-01 9.99e+02  -0.4 0.00e+00    -  0.00e+00 6.63e-08R  2
   5r-4.0527189e-02 4.02e-01 2.72e+03  -0.4 1.47e+04    -  6.59e-07 5.48e-08f  1
   6 -4.0526917e-02 4.02e-01 2.06e+06  -6.0 1.76e+02    -  3.08e-02 2.19e-05h  1
   7 -4.0527184e-02 4.02e-01 2.11e+07  -6.0 6.01e+02    -  2.33e-05 2.40e-04h  1
   8 -4.0529623e-02 4.01e-01 2.11e+07  -6.0 6.00e+02    -  2.39e-03 2.64e-03h  1
   9 -4.0471644e-02 3.96e-01 2.08e+07  -6.0 5.91e+02    -  3.27e-03 1.21e-02h  1
iter    objective    inf_pr   inf_du lg(mu)  ||d||  lg(rg) alpha_du alpha_pr  ls
  10 -4.0380362e-02 3.92e-01 2.06e+07  -6.0 5.83e+02    -  1.71e-02 1.01e-02h  1
  11r-4.0380362e-02 3.92e-01 9.99e+02  -0.4 0.00e+00    -  0.00e+00 3.38e-07R  4
  12r-4.0380730e-02 3.92e-01 2.05e+03  -0.4 7.83e+03    -  2.40e-06 1.36e-07f  1
  13r-4.0380730e-02 3.92e-01 9.99e+02  -0.4 0.00e+00    -  0.00e+00 2.56e-07R  3
  14r-4.0381185e-02 3.92e-01 3.54e+03  -0.4 1.20e+04    -  1.22e-06 3.69e-08f  1
  15 -4.0380980e-02 3.92e-01 2.54e+06  -6.0 2.14e+02    -  2.84e-02 1.42e-05h  1
  16 -4.0376670e-02 3.92e-01 4.15e+07  -6.0 5.73e+02    -  1.56e-05 2.55e-04h  1
  17 -4.0336133e-02 3.91e-01 4.14e+07  -6.0 6.05e+02    -  2.55e-02 2.15e-03h  1
  18 -4.0024209e-02 3.84e-01 4.08e+07  -6.0 6.04e+02    -  2.44e-03 1.79e-02h  2
  19 -3.9495523e-02 3.73e-01 3.96e+07  -6.0 6.10e+02    -  4.39e-02 2.92e-02h  1
iter    objective    inf_pr   inf_du lg(mu)  ||d||  lg(rg) alpha_du alpha_pr  ls
  20 -3.9204310e-02 3.67e-01 3.89e+07  -6.0 5.96e+02    -  5.82e-02 1.58e-02h  2
  21 -3.8997369e-02 3.63e-01 3.85e+07  -6.0 5.77e+02    -  8.98e-02 1.14e-02h  2
  22 -3.8731386e-02 3.58e-01 3.79e+07  -6.0 5.60e+02    -  1.09e-01 1.47e-02h  1
  23 -3.8728644e-02 3.57e-01 3.79e+07  -6.0 5.27e+02    -  1.19e-01 2.49e-04h  1
  24 -3.8655037e-02 3.55e-01 3.77e+07  -6.0 5.25e+02    -  1.33e-01 6.20e-03h  6
  25 -3.8571702e-02 3.53e-01 3.74e+07  -6.0 5.15e+02    -  1.44e-01 6.88e-03h  6
  26 -3.8478451e-02 3.50e-01 3.72e+07  -6.0 4.97e+02    -  8.52e-02 7.02e-03h  6
  27 -3.8384766e-02 3.48e-01 3.69e+07  -6.0 4.85e+02    -  1.87e-01 7.04e-03h  6
  28 -3.8282588e-02 3.45e-01 3.66e+07  -6.0 4.84e+02    -  1.75e-02 7.14e-03h  6
  29 -3.8180237e-02 3.43e-01 3.64e+07  -6.0 4.76e+02    -  2.62e-01 7.19e-03h  6
iter    objective    inf_pr   inf_du lg(mu)  ||d||  lg(rg) alpha_du alpha_pr  ls
  30 -3.8063530e-02 3.40e-01 3.61e+07  -6.0 4.91e+02    -  3.01e-02 7.37e-03h  6
  31 -3.7946042e-02 3.38e-01 3.58e+07  -6.0 4.97e+02    -  2.91e-01 7.43e-03h  6
  32 -3.7878507e-02 3.37e-01 3.57e+07  -6.0 5.23e+02    -  4.34e-02 3.84e-03h  7
  33 -3.7810103e-02 3.35e-01 3.56e+07  -6.0 5.28e+02    -  3.18e-01 3.87e-03h  7
  34 -3.2892855e-02 4.13e+00 2.65e+07  -6.0 5.50e+02    -  5.25e-02 2.54e-01w  1
  35 -3.2663205e-02 4.06e+00 2.60e+07  -6.0 5.86e+02    -  3.91e-02 1.87e-02w  1
  36 -3.2536917e-02 4.05e+00 2.59e+07  -6.0 1.20e+03    -  7.62e-03 4.31e-03w  1
  37 -3.7733271e-02 3.34e-01 3.54e+07  -6.0 1.19e+03    -  5.25e-02 3.97e-03h  6
  38 -3.7657794e-02 3.33e-01 3.53e+07  -6.0 5.56e+02    -  3.40e-01 3.89e-03h  7
  39 -3.7582115e-02 3.31e-01 3.52e+07  -6.0 6.60e+02    -  5.51e-02 3.72e-03h  7
iter    objective    inf_pr   inf_du lg(mu)  ||d||  lg(rg) alpha_du alpha_pr  ls
  40 -3.7513216e-02 3.30e-01 3.50e+07  -6.0 6.75e+02    -  3.47e-01 3.39e-03h  7
  41 -3.7414354e-02 3.29e-01 3.49e+07  -6.0 9.06e+02    -  4.94e-02 4.69e-03h  6
  42 -3.7322921e-02 3.27e-01 3.47e+07  -6.0 9.50e+02    -  2.97e-01 4.34e-03h  6
  43 -3.7277116e-02 3.27e-01 3.46e+07  -6.0 1.33e+03    -  6.22e-02 2.07e-03h  7
  44 -3.7226664e-02 3.26e-01 3.46e+07  -6.0 1.41e+03    -  1.98e-01 2.25e-03h  7
  45 -3.7191578e-02 3.25e-01 3.45e+07  -6.0 1.70e+03    -  1.48e-01 1.52e-03h  8
  46 -3.7145215e-02 3.25e-01 3.44e+07  -6.0 1.94e+03    -  3.47e-01 2.02e-03h  8
  47 -3.0809751e-02 1.77e+01 2.22e+07  -6.0 2.58e+03    -  3.51e-01 3.55e-01w  1
  48 -3.0168679e-02 2.89e+01 1.97e+07  -6.0 1.99e+03    -  3.31e-06 1.11e-01w  1
  49 -3.0999761e-02 2.97e+01 1.86e+07  -6.0 1.16e+03    -  3.79e-02 5.81e-02w  1
iter    objective    inf_pr   inf_du lg(mu)  ||d||  lg(rg) alpha_du alpha_pr  ls
  50 -3.7120467e-02 3.24e-01 3.44e+07  -6.0 1.18e+03    -  3.51e-01 1.39e-03h  8
  51 -3.7122386e-02 3.24e-01 3.44e+07  -6.0 3.61e+03    -  2.20e-01 7.42e-04h  9
  52 -3.7134822e-02 3.24e-01 3.44e+07  -6.0 5.23e+03    -  9.40e-02 4.98e-04h  9
  53 -3.7163616e-02 3.24e-01 3.43e+07  -6.0 5.87e+03    -  4.97e-02 8.98e-04h  8
  54 -3.7178678e-02 3.23e-01 3.43e+07  -6.0 6.15e+03    -  6.25e-02 4.33e-04h  9
  55 -3.7193724e-02 3.23e-01 3.43e+07  -6.0 6.50e+03    -  2.66e-02 4.30e-04h  9
  56 -3.7201204e-02 3.23e-01 3.43e+07  -6.0 6.61e+03    -  1.59e-01 2.16e-04h 10
  57 -4.0056228e-02 3.35e+01 2.99e+07  -6.0 7.47e+03    -  2.69e-02 1.27e-01h  1
  58 -3.9079804e-02 3.32e+01 2.96e+07  -6.0 7.24e+03    -  5.80e-06 1.23e-02h  4
  59 -3.8615009e-02 3.26e+01 2.89e+07  -6.0 6.91e+02  -4.5 2.31e-02 2.27e-02h  4
iter    objective    inf_pr   inf_du lg(mu)  ||d||  lg(rg) alpha_du alpha_pr  ls
  60 -3.8521777e-02 3.24e+01 2.88e+07  -6.0 8.64e+02  -5.0 2.85e-02 4.02e-03h  7
  61 -3.8454314e-02 3.24e+01 2.87e+07  -6.0 1.63e+03  -5.4 4.52e-02 2.11e-03h  8
  62 -3.8438442e-02 3.24e+01 2.87e+07  -6.0 2.54e+03  -5.9 1.73e-02 2.33e-04h 10
  63 -3.8437371e-02 3.24e+01 2.87e+07  -6.0 1.81e+03  -5.5 8.48e-02 3.15e-05h 14
  64 -3.7581581e-02 3.24e+01 2.85e+07  -6.0 5.60e+03  -6.0 7.13e-03 6.63e-03h  4
  65 -3.5083671e-02 3.11e+01 2.65e+07  -6.0 2.03e+03  -5.5 1.70e-01 7.23e-02h  3
  66 -3.4754679e-02 3.11e+01 2.63e+07  -6.0 2.94e+03  -6.0 4.02e-02 4.33e-03h  4
  67 -3.2461420e-02 3.14e+01 2.41e+07  -6.0 2.01e+03  -5.6 1.08e-01 8.63e-02h  3
  68 -3.3557436e-02 1.37e+02 2.27e+07  -6.0 2.42e+03  -6.1 4.07e-02 5.87e-02w  1
  69 -2.8509043e-02 1.00e+02 1.61e+07  -6.0 1.49e+03  -5.6 2.61e-01 2.91e-01w  1
iter    objective    inf_pr   inf_du lg(mu)  ||d||  lg(rg) alpha_du alpha_pr  ls
  70 -2.8521814e-02 9.63e+01 1.55e+07  -6.0 1.27e+02  -2.5 2.42e-02 3.75e-02w  1
  71 -3.2529921e-02 3.17e+01 2.40e+07  -6.0 1.13e+02  -2.1 4.07e-02 3.67e-03h  4
  72 -3.2243536e-02 3.06e+01 2.32e+07  -6.0 1.85e+02  -2.6 4.23e-02 3.38e-02h  1
  73 -3.1979613e-02 2.99e+01 2.26e+07  -6.0 3.04e+02  -3.0 1.87e-01 2.46e-02h  1
  74 -3.0783602e-02 3.30e+01 2.05e+07  -6.0 4.32e+02  -3.5 7.36e-02 9.30e-02h  2
  75 -3.0412837e-02 3.41e+01 1.99e+07  -6.0 4.31e+02  -4.0 3.08e-03 2.79e-02h  2
  76 -2.8075738e-02 3.42e+01 1.98e+07  -6.0 4.70e+02  -4.5 3.19e-04 4.86e-03h  3
  77  4.6899524e-01 3.39e+01 1.97e+07  -6.0 1.19e+03  -4.0 2.69e-05 5.46e-03h  1
  78  6.3796718e-01 3.39e+01 1.97e+07  -6.0 1.24e+03  -4.5 3.19e-02 2.28e-03h  5
  79  8.3524302e-01 3.38e+01 1.96e+07  -6.0 3.17e+02  -3.2 2.75e-02 5.38e-03h  1
iter    objective    inf_pr   inf_du lg(mu)  ||d||  lg(rg) alpha_du alpha_pr  ls
  80  1.1781585e+00 3.39e+01 1.94e+07  -6.0 5.32e+02  -3.7 4.08e-02 6.83e-03h  4
  81  3.7258478e+00 2.98e+01 1.80e+07  -6.0 3.11e+02  -3.2 6.68e-02 7.41e-02h  1
  82r 3.7258478e+00 2.98e+01 1.00e+03   1.1 0.00e+00  -2.8 0.00e+00 6.88e-09R  2
  83r 3.7258479e+00 2.98e+01 1.00e+03   1.1 2.94e+06    -  9.77e-08 3.07e-09f  1
  84  3.7258329e+00 2.98e+01 2.78e+00  -6.0 5.86e+01    -  1.11e-06 4.19e-06h  1
  85  3.7258075e+00 2.98e+01 1.38e+05  -6.0 2.22e+02    -  1.16e-02 6.39e-06f  1
  86  3.7044414e+00 2.95e+01 1.23e+05  -6.0 4.97e+02    -  1.58e-05 9.60e-03h  1
  87  3.7027155e+00 2.95e+01 1.22e+06  -6.0 2.61e+02    -  8.00e-02 4.64e-04h  1
  88  3.4324742e+00 2.74e+01 2.65e+05  -6.0 2.65e+02    -  8.16e-03 7.27e-02h  1
  89  3.4270539e+00 2.73e+01 1.21e+06  -6.0 2.70e+02    -  4.13e-02 1.57e-03h  1
iter    objective    inf_pr   inf_du lg(mu)  ||d||  lg(rg) alpha_du alpha_pr  ls
  90  3.2800845e+00 2.62e+01 2.50e+06  -6.0 2.68e+02    -  1.05e-01 4.26e-02h  1
  91  3.1546405e+00 2.52e+01 3.53e+06  -6.0 2.32e+02    -  8.80e-02 3.80e-02h  1
  92  3.1524583e+00 2.52e+01 6.34e+06  -6.0 6.27e+02    -  5.58e-02 6.87e-04h  1
  93  2.9429941e+00 2.49e+01 4.60e+06  -6.0 5.07e+02    -  4.78e-02 6.59e-02h  1
  94  2.6242583e+00 2.64e+01 1.20e+07  -6.0 3.76e+02    -  2.65e-01 1.08e-01h  1
  95  2.2463999e+00 2.57e+01 1.22e+07  -6.0 2.22e+02    -  3.35e-01 1.43e-01h  1
  96  1.9420239e+00 2.29e+01 1.12e+07  -6.0 2.02e+02    -  1.82e-01 1.34e-01h  1
  97  1.9151486e+00 2.26e+01 1.35e+07  -6.0 3.07e+02    -  1.44e-01 1.37e-02h  1
  98  1.6586618e+00 2.02e+01 1.22e+07  -6.0 2.97e+02    -  1.64e-01 1.32e-01h  1
  99  1.6237576e+00 1.98e+01 1.21e+07  -6.0 4.40e+02  -3.3 1.55e-02 2.08e-02h  1
iter    objective    inf_pr   inf_du lg(mu)  ||d||  lg(rg) alpha_du alpha_pr  ls
 100r 1.6237576e+00 1.98e+01 1.00e+03   0.9 0.00e+00    -  0.00e+00 1.27e-07R  2
 101r 1.6237132e+00 1.98e+01 1.00e+03   0.9 8.59e+05    -  9.92e-07 9.37e-08f  1
 102  1.6229137e+00 1.98e+01 3.89e+02  -6.0 3.09e+01    -  1.24e-06 4.85e-04h  1
 103  1.6228537e+00 1.98e+01 1.06e+06  -6.0 2.13e+02    -  1.68e-02 3.60e-05f  1
 104  1.6216132e+00 1.97e+01 1.06e+06  -6.0 1.32e+02    -  5.30e-04 7.49e-04h  1
 105  1.6155595e+00 1.97e+01 9.40e+05  -6.0 1.39e+02    -  9.47e-04 3.66e-03h  1
 106  1.6138461e+00 1.96e+01 1.03e+07  -6.0 1.38e+02    -  2.30e-01 1.04e-03h  1
 107  1.6077615e+00 1.96e+01 1.04e+07  -6.0 1.38e+02    -  6.45e-03 3.70e-03h  1
 108  1.4867658e+00 1.81e+01 1.57e+07  -6.0 1.39e+02    -  2.67e-01 7.38e-02h  1
 109  1.4863207e+00 1.81e+01 1.88e+07  -6.0 2.62e+02    -  8.47e-02 2.94e-04h  1
iter    objective    inf_pr   inf_du lg(mu)  ||d||  lg(rg) alpha_du alpha_pr  ls
 110  1.4502387e+00 1.77e+01 1.81e+07  -6.0 1.95e+02    -  1.58e-02 2.38e-02h  1
 111  1.2296262e+00 1.49e+01 2.60e+07  -6.0 3.43e+02    -  3.87e-01 1.49e-01h  1
 112  9.5143083e-01 1.13e+01 1.85e+07  -6.0 3.28e+02    -  1.18e-01 2.21e-01h  1
 113  8.9880691e-01 1.07e+01 5.40e+08  -6.0 1.92e+02    -  2.66e-03 5.35e-02h  1
 114  8.9863931e-01 1.07e+01 5.41e+08  -6.0 1.69e+03    -  1.85e-01 1.80e-04h  1
 115  8.9699259e-01 1.06e+01 5.39e+08  -6.0 1.56e+03    -  3.36e-07 1.77e-03h  1
 116  8.8707399e-01 1.05e+01 5.61e+08  -6.0 1.01e+03    -  3.71e-04 1.07e-02h  1
 117  7.2125516e-01 8.73e+00 4.49e+08  -6.0 1.15e+03    -  4.68e-02 1.81e-01h  1
 118  5.1340330e-01 8.71e+00 3.31e+08  -6.0 1.49e+03    -  1.22e-02 2.77e-01h  1
 119  3.2102867e-01 9.77e+00 2.25e+10  -6.0 1.50e+03    -  4.51e-04 3.52e-01h  1
iter    objective    inf_pr   inf_du lg(mu)  ||d||  lg(rg) alpha_du alpha_pr  ls
 120  3.1647217e-01 9.65e+00 2.23e+10  -6.0 1.44e+03    -  2.63e-02 1.19e-02h  1
 121  2.9479227e-01 9.13e+00 2.10e+10  -6.0 2.29e+03    -  8.81e-06 5.44e-02h  1
 122r 2.9479227e-01 9.13e+00 1.00e+03   0.8 0.00e+00    -  0.00e+00 3.19e-08R  2
 123r 2.9390034e-01 9.13e+00 1.00e+03   0.8 1.41e+07    -  1.56e-08 5.78e-08f  1
 124r 2.9390034e-01 9.13e+00 9.99e+02   0.8 0.00e+00    -  0.00e+00 4.34e-08R  6
 125r 2.9390969e-01 9.13e+00 4.73e+04   0.8 6.83e+04    -  1.17e-07 5.31e-09f  1
 126  2.9390305e-01 9.13e+00 8.05e+03  -6.0 8.36e+01    -  1.38e-04 2.05e-05h  1
 127  2.9388380e-01 9.13e+00 2.46e+04  -6.0 8.49e+02    -  2.21e-05 6.08e-05h  1
 128  2.9386490e-01 9.13e+00 2.46e+04  -6.0 7.36e+02    -  2.39e-05 5.96e-05h  1
 129  2.9381207e-01 9.12e+00 2.46e+04  -6.0 7.02e+02    -  1.69e-04 1.67e-04f  1
iter    objective    inf_pr   inf_du lg(mu)  ||d||  lg(rg) alpha_du alpha_pr  ls
 130  2.9366594e-01 9.12e+00 2.46e+04  -6.0 5.65e+02    -  3.02e-04 4.64e-04h  1
 131  2.9142430e-01 9.05e+00 2.44e+04  -6.0 4.71e+02    -  2.15e-04 7.16e-03f  1
 132  2.9135457e-01 9.05e+00 2.44e+04  -6.0 1.04e+02    -  2.59e-03 2.26e-04h  1
 133  2.8206776e-01 8.78e+00 2.37e+04  -6.0 1.03e+02    -  3.01e-03 3.01e-02f  1
 134  2.7981097e-01 8.71e+00 2.35e+04  -6.0 3.13e+01    -  5.74e-03 7.32e-03h  1
 135  2.6300896e-01 8.24e+00 6.78e+04  -6.0 2.59e+01    -  8.67e-03 5.48e-02h  1
 136  2.6300886e-01 8.24e+00 3.65e+06  -6.0 1.13e+01  -2.0 2.40e-02 3.45e-07h  2
 137r 2.6300886e-01 8.24e+00 1.00e+03   0.8 0.00e+00    -  0.00e+00 1.34e-07R  6
 138r 2.6302391e-01 8.24e+00 1.00e+03   0.8 5.19e+06    -  1.08e-07 4.47e-08f  1
 139  2.6142300e-01 8.19e+00 4.87e+03  -6.0 3.78e+01    -  1.09e-06 5.54e-03h  1
iter    objective    inf_pr   inf_du lg(mu)  ||d||  lg(rg) alpha_du alpha_pr  ls
 140  2.6119576e-01 8.19e+00 1.27e+07  -6.0 3.15e+02    -  1.87e-02 7.50e-04f  1
 141  2.2760875e-01 7.24e+00 3.91e+05  -6.0 6.03e+01    -  8.65e-03 1.16e-01h  1
 142  2.0113216e-01 6.49e+00 9.93e+05  -6.0 9.75e+00    -  1.42e-01 1.04e-01h  1
 143  8.1151554e-02 3.12e+00 6.12e+06  -6.0 9.11e+00    -  1.84e-01 5.19e-01h  1
 144  4.0613287e-02 2.04e+00 5.99e+07  -6.0 4.24e+01    -  4.15e-02 3.47e-01h  1
 145  1.1399553e-02 1.26e+00 2.64e+08  -6.0 6.53e+01    -  9.56e-03 3.79e-01h  1
 146 -8.5399182e-04 9.42e-01 1.96e+08  -6.0 1.00e+01  -2.4 4.26e-06 2.55e-01h  1
 147 -8.1768361e-03 7.46e-01 1.55e+08  -6.0 2.20e+00  -2.9 4.08e-01 2.08e-01f  1
 148 -2.6196815e-02 2.60e-01 5.43e+07  -6.0 1.81e+00  -2.5 8.58e-02 6.51e-01h  1
 149 -3.2225130e-02 9.65e-02 2.01e+07  -6.0 1.31e+00    -  4.82e-01 6.30e-01f  1
iter    objective    inf_pr   inf_du lg(mu)  ||d||  lg(rg) alpha_du alpha_pr  ls
 150 -3.5733618e-02 1.01e-03 4.67e+04  -6.0 6.37e-01    -  9.50e-01 9.98e-01f  1
 151 -3.5901626e-02 2.39e-03 8.39e+01  -6.0 4.02e+00    -  4.21e-01 1.00e+00h  1
 152 -3.6351514e-02 1.71e-02 2.13e+01  -6.0 8.04e+00    -  7.58e-01 1.00e+00h  1
 153 -3.7069025e-02 2.06e-02 1.87e+01  -6.0 7.35e+01    -  1.27e-01 6.72e-02h  1
 154 -3.9753346e-02 2.29e-01 2.30e+01  -6.0 4.70e+01    -  2.30e-01 6.68e-01f  1
 155 -4.1822192e-02 1.69e-01 1.04e+04  -6.0 5.67e+01    -  2.83e-01 3.86e-01h  1
 156 -4.3057953e-02 1.81e-01 1.76e+04  -6.0 2.73e+02    -  4.87e-02 6.78e-02h  1
 157 -4.6342338e-02 2.81e-01 2.35e+03  -6.0 1.14e+02    -  3.19e-01 2.73e-01h  1
 158 -4.7511294e-02 2.69e-01 8.91e+04  -6.0 2.21e+02    -  1.70e-01 5.95e-02h  1
 159 -5.4473051e-02 1.30e+00 1.35e+07  -6.0 2.14e+03    -  6.71e-04 3.49e-02h  1
iter    objective    inf_pr   inf_du lg(mu)  ||d||  lg(rg) alpha_du alpha_pr  ls
 160 -5.6954608e-02 1.16e+00 1.17e+07  -6.0 2.08e+02    -  4.44e-02 1.36e-01h  1
 161 -5.9340106e-02 1.19e+00 8.64e+06  -6.0 1.19e+02    -  7.14e-05 2.59e-01h  1
 162 -6.7708760e-02 5.12e+00 7.98e+05  -6.0 1.28e+02    -  5.34e-01 9.08e-01f  1
 163 -6.7704756e-02 5.08e+00 7.91e+05  -6.0 2.56e+00  -2.1 7.50e-03 9.06e-03h  1
 164 -6.7707390e-02 5.04e+00 7.84e+05  -6.0 1.62e+00  -2.5 2.67e-02 7.99e-03h  1
 165 -6.7707061e-02 5.00e+00 7.78e+05  -6.0 1.30e+00  -2.1 2.29e-02 7.55e-03h  1
 166 -6.7716779e-02 4.49e+00 6.99e+05  -6.0 1.87e+00  -2.6 2.87e-02 1.02e-01f  1
 167 -6.7720665e-02 4.32e+00 6.73e+05  -6.0 1.78e+00  -2.2 3.81e-02 3.69e-02h  1
 168 -6.7720602e-02 4.29e+00 6.68e+05  -6.0 1.31e+00  -1.7 1.90e-01 8.07e-03h  1
 169 -6.7718474e-02 4.15e+00 6.47e+05  -6.0 1.24e+00  -1.3 3.67e-01 3.16e-02h  1
iter    objective    inf_pr   inf_du lg(mu)  ||d||  lg(rg) alpha_du alpha_pr  ls
 170 -6.7716361e-02 4.05e+00 6.30e+05  -6.0 1.25e+00  -1.8 4.27e-01 2.55e-02h  1
 171 -6.7708366e-02 3.92e+00 6.11e+05  -6.0 1.87e+00  -2.3 5.28e-01 3.10e-02h  1
 172 -6.7586766e-02 2.18e+00 3.40e+05  -6.0 1.95e+00  -2.7 2.30e-01 4.44e-01h  1
 173 -6.7564139e-02 1.91e+00 2.97e+05  -6.0 1.37e+00  -3.2 3.89e-01 1.27e-01h  1
 174 -6.7539559e-02 1.61e+00 2.50e+05  -6.0 1.29e+00  -3.7 3.41e-01 1.57e-01h  1
 175 -6.7502256e-02 1.19e+00 1.86e+05  -6.0 1.04e+00  -3.3 3.91e-01 2.57e-01h  1
 176 -6.7403530e-02 4.07e-03 1.05e+02  -6.0 7.76e-01  -3.7 4.37e-01 1.00e+00h  1
 177 -6.7446050e-02 8.82e-04 3.65e+01  -6.0 3.19e-01  -4.2 6.58e-01 1.00e+00h  1
 178 -6.7573632e-02 7.36e-03 1.32e+01  -6.0 9.32e-01  -4.7 6.66e-01 1.00e+00h  1
 179 -6.7937167e-02 5.89e-02 2.54e+00  -6.0 2.66e+00  -5.2 8.54e-01 1.00e+00h  1
iter    objective    inf_pr   inf_du lg(mu)  ||d||  lg(rg) alpha_du alpha_pr  ls
 180 -6.8265788e-02 8.43e-02 6.17e+00  -6.0 7.48e+00  -5.7 1.00e+00 3.53e-01h  1
 181 -6.8850439e-02 1.74e-01 2.15e+01  -6.0 1.97e+01  -6.1 1.00e+00 2.77e-01h  1
 182 -6.9134645e-02 1.70e-01 4.08e+01  -6.0 4.37e+01  -6.6 1.36e-01 7.85e-02h  1
 183 -6.9251119e-02 1.66e-01 8.20e+02  -6.0 9.72e+01  -7.1 2.09e-01 2.14e-02h  1
 184 -6.9503629e-02 1.55e-01 6.07e+03  -6.0 3.41e+01  -6.7 9.83e-01 1.65e-01h  1
 185 -7.0666260e-02 1.48e-01 6.36e+03  -6.0 1.09e+02  -7.1 7.68e-01 3.21e-01h  1
 186 -7.1660245e-02 1.85e-01 7.21e+03  -6.0 3.98e+01  -6.7 9.89e-01 6.41e-01h  1
 187 -7.2045311e-02 1.72e-01 1.53e+04  -6.0 1.18e+02  -7.2 1.75e-01 9.36e-02h  1
 188 -7.2138269e-02 5.61e+00 5.28e+05  -6.0 5.38e+03  -7.7 6.56e-04 8.17e-03h  1
 189 -7.2137265e-02 5.54e+00 5.21e+05  -6.0 8.76e+00  -2.7 2.95e-03 1.21e-02h  1
iter    objective    inf_pr   inf_du lg(mu)  ||d||  lg(rg) alpha_du alpha_pr  ls
 190 -7.2137742e-02 5.54e+00 5.21e+05  -6.0 2.50e+02  -3.2 2.68e-04 2.58e-04h  1
 191 -7.2137672e-02 5.54e+00 5.21e+05  -6.0 7.12e+01  -2.8 2.12e-03 7.92e-04h  1
 192 -7.2138046e-02 5.53e+00 5.20e+05  -6.0 7.89e+01  -3.3 1.02e-03 6.59e-04h  1
 193 -7.2128359e-02 5.49e+00 5.16e+05  -6.0 1.29e+01  -2.8 3.17e-03 7.17e-03h  1
 194 -7.2124451e-02 5.43e+00 5.11e+05  -6.0 8.26e+00  -2.4 1.18e-02 1.09e-02h  1
 195 -7.2093913e-02 5.36e+00 5.04e+05  -6.0 2.04e+01  -2.9 4.90e-03 1.30e-02h  1
 196 -7.2072549e-02 5.25e+00 4.93e+05  -6.0 8.20e+00  -2.5 8.09e-03 2.18e-02h  2
 197 -7.2071736e-02 5.25e+00 4.93e+05  -6.0 9.36e+01  -2.9 5.84e-03 7.69e-05h  1
 198 -7.2053590e-02 5.17e+00 4.86e+05  -6.0 8.06e+00  -2.5 1.47e-03 1.45e-02h  2
 199r-7.2053590e-02 5.17e+00 9.99e+02   0.3 0.00e+00  -3.0 0.00e+00 3.28e-07R  6
iter    objective    inf_pr   inf_du lg(mu)  ||d||  lg(rg) alpha_du alpha_pr  ls
 200r-7.1992639e-02 5.17e+00 9.99e+02   0.3 2.63e+06    -  1.91e-08 6.17e-07f  1
 201 -7.7093823e-02 4.93e+00 3.16e+02  -6.0 2.05e+05    -  4.67e-03 6.89e-03h  1
 202 -8.1214574e-02 4.89e+00 3.14e+02  -6.0 1.79e+05    -  3.78e-03 6.67e-03h  1
 203 -8.4014110e-02 4.87e+00 3.08e+02  -6.0 1.34e+05    -  1.99e-02 5.06e-03h  1
 204 -8.9418917e-02 6.07e+00 3.07e+02  -6.0 1.38e+05    -  4.05e-03 8.23e-03h  1
 205 -9.1074536e-02 6.19e+00 3.06e+02  -6.0 1.61e+05    -  4.07e-03 2.33e-03h  1
 206 -9.3892727e-02 6.42e+00 2.96e+02  -6.0 8.87e+04    -  3.31e-02 7.30e-03h  1
 207 -9.3892443e-02 6.35e+00 3.21e+02  -6.0 1.79e+01  -3.5 1.43e-04 1.17e-02h  1
 208 -9.3896986e-02 6.33e+00 3.19e+02  -6.0 1.19e+01  -3.9 5.78e-03 3.25e-03h  1
 209 -9.3935848e-02 6.26e+00 3.17e+02  -6.0 7.44e+01  -4.4 2.22e-03 1.00e-02h  1
iter    objective    inf_pr   inf_du lg(mu)  ||d||  lg(rg) alpha_du alpha_pr  ls
 210 -9.3941748e-02 6.17e+00 2.92e+02  -6.0 1.56e+01  -4.9 7.32e-02 1.45e-02h  1
 211 -9.3908459e-02 5.91e+00 2.74e+02  -6.0 2.81e+01  -5.4 6.13e-02 4.32e-02h  1
 212 -9.3890780e-02 5.88e+00 2.55e+02  -6.0 4.99e+01  -3.1 3.97e-04 4.98e-03h  1
 213 -9.3890418e-02 5.87e+00 2.54e+02  -6.0 7.15e+00  -0.9 5.04e-04 7.32e-04h  1
 214 -9.3890341e-02 5.87e+00 2.54e+02  -6.0 7.20e+00  -0.5 1.63e-03 7.27e-04h  1
 215 -9.3886127e-02 5.86e+00 2.54e+02  -6.0 1.11e+01  -1.0 8.33e-04 2.01e-03h  1
 216 -9.3884537e-02 5.85e+00 2.53e+02  -6.0 7.71e+00  -0.5 2.60e-03 1.57e-03h  1
 217 -9.3884095e-02 5.83e+00 2.53e+02  -6.0 6.85e+00  -0.1 4.34e-03 2.91e-03h  1
 218 -9.3883618e-02 5.83e+00 2.53e+02  -6.0 2.56e+01  -0.6 2.00e-03 4.87e-04h  1
 219 -9.3888264e-02 5.81e+00 2.54e+02  -6.0 8.12e+00  -0.2 1.20e-02 3.83e-03h  1
iter    objective    inf_pr   inf_du lg(mu)  ||d||  lg(rg) alpha_du alpha_pr  ls
 220 -9.3902579e-02 5.76e+00 2.51e+02  -6.0 1.04e+01  -0.6 5.38e-03 8.30e-03h  1
 221 -9.3906777e-02 5.74e+00 2.50e+02  -6.0 1.59e+01  -1.1 2.66e-03 3.61e-03h  1
 222 -9.3897595e-02 5.43e+00 2.38e+02  -6.0 1.24e+01  -1.6 3.02e-02 5.37e-02h  1
 223 -9.3883318e-02 4.18e+00 3.86e+02  -6.0 1.24e+01  -2.1 6.35e-02 2.35e-01h  1
 224 -9.3793627e-02 2.09e+00 1.19e+03  -6.0 9.33e+00  -2.5 1.93e-01 5.16e-01h  1
 225 -9.3748227e-02 4.25e-01 1.19e+03  -6.0 4.28e+00  -3.0 6.18e-01 8.16e-01h  1
 226 -9.3748092e-02 4.25e-01 1.19e+03  -6.0 1.42e+01  -3.5 4.41e-01 1.15e-03h  1
 227 -9.3667930e-02 2.25e-01 5.95e+02  -6.0 1.46e+01  -4.0 1.43e-01 4.76e-01h  1
 228 -9.3458103e-02 1.68e-01 4.48e+02  -6.0 1.51e+01  -4.4 4.17e-01 2.54e-01h  1
 229 -9.3424451e-02 1.33e-01 3.46e+02  -6.0 8.34e+00  -4.9 9.71e-01 2.28e-01h  1
iter    objective    inf_pr   inf_du lg(mu)  ||d||  lg(rg) alpha_du alpha_pr  ls
 230 -9.2874537e-02 1.95e-01 3.06e+03  -6.0 3.80e+01  -5.4 1.48e-01 3.60e-01H  1
 231 -9.2951088e-02 1.63e-01 2.53e+03  -6.0 1.24e+01  -5.9 7.37e-03 1.74e-01h  1
 232 -9.2922228e-02 1.46e-01 2.26e+03  -6.0 3.21e+00  -5.4 9.36e-01 1.06e-01h  1
 233 -9.2876614e-02 9.88e-03 1.95e+01  -6.0 4.51e+00  -5.9 1.00e+00 1.00e+00h  1
 234 -9.3325385e-02 5.44e-02 1.67e+01  -6.0 2.94e+01  -6.4 7.40e-02 1.40e-01h  1
 235 -9.5283597e-02 1.25e+00 3.33e+01  -6.0 6.34e+01  -6.9 9.98e-02 3.48e-01f  1
 236 -9.6534749e-02 2.19e+00 3.17e+01  -6.0 2.80e+02  -7.4 4.60e-02 9.46e-02h  1
 237 -9.6766445e-02 2.11e+00 2.62e+01  -6.0 6.53e+01  -6.9 6.17e-01 7.34e-02h  1
 238 -9.9381237e-02 6.28e+00 2.61e+01  -6.0 2.49e+02  -7.4 3.88e-01 3.14e-01h  1
 239 -1.0342808e-01 5.06e+00 2.45e+01  -6.0 7.80e+02  -7.9 1.80e-01 1.85e-01h  1
iter    objective    inf_pr   inf_du lg(mu)  ||d||  lg(rg) alpha_du alpha_pr  ls
 240 -1.0386411e-01 4.83e+00 2.30e+01  -6.0 1.57e+02  -7.5 5.99e-02 6.17e-02h  1
 241 -1.0562429e-01 4.48e+00 5.97e+02  -6.0 7.06e+02  -7.9 4.88e-01 7.65e-02h  1
 242 -1.0645812e-01 4.15e+00 2.26e+02  -6.0 2.36e+02  -7.5 4.94e-01 9.34e-02h  1
 243 -1.0660933e-01 4.00e+00 1.57e+02  -6.0 5.01e+02  -8.0 2.50e-01 3.82e-02h  1
 244 -1.0763101e-01 8.55e+00 1.57e+02  -6.0 2.40e+02  -7.6 5.69e-01 5.17e-01f  1
 245 -1.0825675e-01 7.38e+00 5.44e+02  -6.0 3.50e+02  -8.0 1.78e-03 1.48e-01h  1
 246 -1.0940773e-01 6.14e+00 3.48e+02  -6.0 1.17e+02  -7.6 4.64e-01 5.39e-01h  1
 247 -1.1001336e-01 6.30e+00 2.13e+02  -6.0 4.46e+01  -7.2 7.56e-01 5.86e-01h  1
 248 -1.1124906e-01 5.15e+00 6.83e+01  -6.0 1.45e+02  -7.7 8.33e-01 6.78e-01h  1
 249 -1.1398713e-01 5.44e+00 3.34e+01  -6.0 3.27e+02  -8.1 7.64e-01 1.00e+00h  1
iter    objective    inf_pr   inf_du lg(mu)  ||d||  lg(rg) alpha_du alpha_pr  ls
 250 -1.1420325e-01 4.87e+00 3.30e+01  -6.0 7.33e+03  -8.6 1.41e-02 1.09e-02h  1
 251 -1.1488525e-01 3.26e+00 1.56e+01  -6.0 3.35e+02  -8.2 1.00e+00 3.27e-01h  1
 252 -1.1723286e-01 3.70e+00 2.58e+01  -6.0 9.00e+02  -8.7 3.12e-01 4.67e-01h  1
 253 -1.1730925e-01 3.43e+00 2.40e+01  -6.0 2.96e+02  -8.2 5.25e-01 7.82e-02h  1
 254 -1.1727653e-01 3.03e+00 3.76e+01  -6.0 1.39e+02  -6.9 1.87e-02 1.16e-01h  1
 255 -1.1810931e-01 1.94e+00 2.01e+01  -6.0 5.81e+01  -7.4 2.21e-01 9.62e-01h  1
 256 -1.1813721e-01 1.40e+00 2.01e+01  -6.0 1.82e+01  -7.0 2.38e-02 2.94e-01h  1
 257 -1.1816660e-01 1.68e-01 1.50e+01  -6.0 8.40e+00  -6.5 6.89e-01 1.00e+00h  1
 258 -1.1835529e-01 3.11e-01 1.19e+01  -6.0 4.20e+01  -7.0 6.09e-01 3.74e-01h  1
 259 -1.1858755e-01 1.14e+00 4.14e+01  -6.0 1.00e+02  -7.5 2.33e-01 2.36e-01h  1
iter    objective    inf_pr   inf_du lg(mu)  ||d||  lg(rg) alpha_du alpha_pr  ls
 260 -1.1862777e-01 1.11e+00 7.46e+01  -6.0 1.47e+02  -8.0 4.75e-01 3.44e-02h  1
 261 -1.1884154e-01 1.60e+00 6.41e+01  -6.0 3.28e+02  -8.4 8.56e-02 1.37e-01h  1
 262 -1.2040747e-01 5.64e+00 7.84e+01  -6.0 1.08e+03  -8.9 3.00e-01 4.52e-01h  1
 263 -1.2044373e-01 5.46e+00 8.32e+01  -6.0 3.42e+02  -8.5 1.57e-01 3.31e-02h  1
 264 -1.2052543e-01 5.43e+00 1.36e+02  -6.0 3.17e+03  -9.0 9.18e-02 1.60e-02h  1
 265 -1.2104978e-01 4.31e+00 1.57e+02  -6.0 4.38e+02  -8.6 3.47e-01 2.58e-01h  1
 266 -1.2106095e-01 4.31e+00 1.56e+02  -6.0 6.82e+03  -9.0 8.08e-06 1.17e-03h  1
 267 -1.2105971e-01 4.31e+00 1.19e+02  -6.0 2.07e+04  -8.6 4.03e-03 2.67e-04h  1
 268 -1.2293327e-01 7.59e+01 1.24e+02  -6.0 5.90e+04  -9.1 4.27e-05 2.99e-02f  1
 269 -1.2178994e-01 6.68e+01 1.09e+02  -6.0 2.69e+03  -8.7 3.28e-02 2.07e-01h  1
iter    objective    inf_pr   inf_du lg(mu)  ||d||  lg(rg) alpha_du alpha_pr  ls
 270 -1.2180538e-01 6.57e+01 3.95e+02  -6.0 1.99e+01  -5.5 1.09e-02 1.64e-02h  1
 271 -1.2178959e-01 6.46e+01 3.51e+02  -6.0 1.66e+02  -6.0 9.74e-02 1.60e-02h  1
 272 -1.2182599e-01 6.29e+01 6.76e+02  -6.0 1.29e+01  -5.6 8.70e-02 2.70e-02h  1
 273 -1.2193968e-01 4.99e+01 4.70e+02  -6.0 5.34e+01  -6.0 1.35e-01 2.06e-01h  1
 274 -1.2225166e-01 2.80e+01 2.73e+02  -6.0 1.35e+01  -6.5 2.67e-01 4.38e-01h  1
 275 -1.2300376e-01 2.40e+00 6.03e+02  -6.0 1.98e+01  -7.0 8.56e-03 9.14e-01h  1
 276 -1.2298958e-01 2.36e+00 5.92e+02  -6.0 1.35e+03  -7.5 1.09e-02 1.82e-02h  1
 277 -1.2307498e-01 2.14e+00 5.38e+02  -6.0 1.87e+02  -8.0 4.26e-01 9.56e-02h  1
 278 -1.2307366e-01 2.14e+00 5.37e+02  -6.0 4.92e+03  -8.4 7.68e-03 1.18e-03h  1
 279 -1.2307378e-01 2.14e+00 5.37e+02  -6.0 1.52e+04  -8.9 1.93e-02 7.79e-04h  3
iter    objective    inf_pr   inf_du lg(mu)  ||d||  lg(rg) alpha_du alpha_pr  ls
 280 -1.2307311e-01 2.14e+00 5.37e+02  -6.0 2.94e+04  -8.5 4.37e-03 1.27e-04h  5
 281 -1.2307631e-01 2.14e+00 5.37e+02  -6.0 5.80e+04  -9.0 1.42e-02 2.33e-04h  4
 282 -1.2307922e-01 2.14e+00 5.37e+02  -6.0 5.49e+04  -8.5 6.29e-03 2.09e-04h  5
 283 -1.2359594e-01 1.94e+01 5.27e+02  -6.0 6.74e+04  -9.0 5.40e-03 1.85e-02h  1
 284 -1.2357048e-01 1.94e+01 5.24e+02  -6.0 2.17e+04  -8.6 6.11e-03 6.01e-03h  1
 285 -1.2353632e-01 1.97e+01 5.20e+02  -6.0 2.67e+04  -9.1 8.75e-03 6.52e-03h  1
 286 -1.2340696e-01 1.97e+01 5.00e+02  -6.0 6.74e+03  -8.6 2.47e-02 3.86e-02h  1
 287 -1.2530435e-01 1.80e+01 4.51e+02  -6.0 7.52e+03  -9.1 1.07e-01 9.76e-02h  1
 288 -1.2671903e-01 1.15e+01 3.06e+02  -6.0 1.05e+03  -8.7 8.12e-02 4.41e-01h  1
 289 -1.2764217e-01 1.07e+01 1.11e+04  -6.0 2.07e+03  -9.2 4.41e-02 1.43e-01h  1
iter    objective    inf_pr   inf_du lg(mu)  ||d||  lg(rg) alpha_du alpha_pr  ls
 290 -1.2960304e-01 8.18e+00 1.91e+04  -6.0 7.17e+02  -8.7 4.30e-01 7.75e-01h  1
 291 -1.2995735e-01 7.58e+00 1.74e+04  -6.0 2.62e+03  -9.2 1.06e-01 8.68e-02h  1
 292 -1.3060578e-01 6.74e+00 1.44e+04  -6.0 1.41e+03  -9.7 2.80e-01 1.71e-01h  1
 293 -1.3061081e-01 6.67e+00 1.43e+04  -6.0 1.98e+02  -8.4 7.42e-01 9.46e-03h  1
 294 -1.3079198e-01 5.56e+00 1.18e+04  -6.0 3.44e+02  -8.8 9.98e-01 1.77e-01h  1
 295 -1.3074941e-01 5.49e+00 1.15e+04  -6.0 7.07e+03  -9.3 2.08e-02 1.31e-02h  2
 296 -1.3185635e-01 2.74e+00 4.15e+03  -6.0 8.32e+02  -9.8 2.28e-01 6.34e-01h  1
 297 -1.3296993e-01 1.21e+01 3.01e+03  -6.0 2.78e+03 -10.3 1.63e-01 2.99e-01h  1
 298 -1.3386431e-01 3.65e+00 5.72e+03  -6.0 4.03e+02  -8.9 2.04e-01 1.00e+00h  1
 299 -1.3469548e-01 6.38e+00 2.99e+03  -6.0 1.75e+03  -9.4 3.19e-01 2.27e-01h  1
iter    objective    inf_pr   inf_du lg(mu)  ||d||  lg(rg) alpha_du alpha_pr  ls
 300 -1.3620346e-01 1.70e+01 2.19e+03  -6.0 8.40e+03  -9.9 1.14e-01 8.31e-02h  1
 301 -1.3611186e-01 1.33e+01 7.25e+02  -6.0 5.88e+02  -9.5 7.58e-01 2.30e-01h  1
 302 -1.3612601e-01 1.31e+01 1.20e+04  -6.0 2.48e+02  -9.0 4.50e-02 1.16e-02h  1
 303 -1.3626636e-01 9.91e+00 1.09e+04  -6.0 5.35e+02  -9.5 1.28e-01 2.44e-01h  1
 304 -1.3623853e-01 5.07e-01 9.01e+03  -6.0 1.63e+02  -9.1 1.25e-01 1.00e+00h  1
 305 -1.3663645e-01 3.95e+00 2.70e+03  -6.0 6.52e+02  -9.6 1.00e+00 6.78e-01h  1
 306 -1.3696592e-01 1.52e+01 2.05e+03  -6.0 3.99e+03 -10.1 3.55e-01 2.38e-01h  1
 307 -1.3700858e-01 1.56e+01 2.04e+03  -6.0 8.20e+03    -  7.09e-06 5.08e-03H  1
 308 -1.3728029e-01 1.25e+01 1.55e+03  -6.0 8.47e+03    -  1.50e-01 2.41e-01h  1
 309 -1.3764195e-01 2.58e+01 9.74e+02  -6.0 5.08e+03    -  5.62e-02 3.77e-01h  1
iter    objective    inf_pr   inf_du lg(mu)  ||d||  lg(rg) alpha_du alpha_pr  ls
 310 -1.3761688e-01 2.16e+01 7.43e+02  -6.0 2.72e+03    -  2.62e-01 2.37e-01h  1
 311 -1.3758399e-01 3.95e+01 6.58e+01  -6.0 1.60e+03 -10.5 2.93e-01 9.53e-01h  1
 312 -1.3757990e-01 3.89e+01 4.95e+01  -6.0 5.57e+03    -  9.78e-02 2.18e-02h  1
 313 -1.3764080e-01 1.98e+01 9.06e+01  -6.0 1.69e+03    -  1.45e-01 5.21e-01h  1
 314 -1.3752153e-01 1.59e+01 7.69e+01  -6.0 7.96e+02  -9.2 1.22e-01 2.02e-01h  1
 315 -1.3785835e-01 6.39e+00 2.58e+01  -6.0 1.64e+03    -  3.99e-01 6.40e-01h  1
 316 -1.3790560e-01 5.88e+00 2.47e+01  -6.0 4.54e+02  -9.7 1.00e-02 8.23e-02h  1
 317 -1.3804324e-01 5.73e+00 9.25e+00  -6.0 6.48e+02    -  3.58e-01 7.39e-01f  1
 318 -1.3805249e-01 1.07e+01 3.60e+01  -6.0 6.23e+03    -  3.95e-02 1.26e-01h  2
 319 -1.3799042e-01 1.75e+00 2.96e+01  -6.0 3.52e+02    -  4.39e-01 1.00e+00h  1
iter    objective    inf_pr   inf_du lg(mu)  ||d||  lg(rg) alpha_du alpha_pr  ls
 320 -1.3799819e-01 7.04e+00 1.54e+01  -6.0 8.38e+02    -  6.09e-01 7.61e-01h  1
 321 -1.3798325e-01 5.23e+00 2.41e+01  -6.0 5.56e+02    -  5.75e-01 8.99e-01h  1
 322 -1.3797415e-01 1.63e+00 7.18e+00  -6.0 1.14e+02    -  7.81e-01 7.14e-01h  1
 323 -1.3795937e-01 7.11e-01 4.99e-01  -6.0 1.96e+02    -  1.00e+00 1.00e+00h  1
 324 -1.3795548e-01 1.16e-01 1.15e-02  -6.0 2.09e+01 -10.2 1.00e+00 1.00e+00h  1
 325 -1.3795656e-01 4.87e-02 4.01e-03  -6.0 3.65e+01    -  1.00e+00 1.00e+00h  1
 326 -1.3795607e-01 3.22e-02 7.85e-04  -6.0 1.66e+01    -  1.00e+00 1.00e+00h  1
 327 -1.3795597e-01 7.52e-04 2.87e-05  -6.0 3.07e+00    -  1.00e+00 1.00e+00h  1
 328 -1.3795597e-01 4.34e-07 2.25e-08  -6.0 8.48e-02    -  1.00e+00 1.00e+00h  1
 329 -1.3858692e-01 6.83e+00 2.19e+01  -7.5 3.01e+03    -  1.91e-01 2.23e-01f  1
iter    objective    inf_pr   inf_du lg(mu)  ||d||  lg(rg) alpha_du alpha_pr  ls
 330 -1.3904703e-01 1.14e+01 2.41e+01  -7.5 3.02e+03    -  2.89e-01 2.48e-01h  1
 331 -1.3906137e-01 1.11e+01 7.67e+01  -7.5 3.49e+02  -9.7 4.71e-01 2.02e-02h  1
 332 -1.3935767e-01 1.58e+01 4.16e+01  -7.5 3.48e+03    -  4.06e-03 2.56e-01h  1
 333 -1.3937641e-01 1.52e+01 4.30e+01  -7.5 6.07e+02 -10.2 1.32e-01 3.81e-02h  1
 334 -1.3950964e-01 1.42e+01 3.98e+01  -7.5 2.53e+03    -  6.41e-03 1.74e-01h  1
 335 -1.3971631e-01 2.41e+01 2.73e+01  -7.5 2.32e+03    -  2.57e-01 4.43e-01h  1
 336 -1.3974184e-01 2.19e+01 2.97e+01  -7.5 1.38e+03    -  3.31e-01 9.17e-02h  1
 337 -1.3978086e-01 1.76e+01 4.32e+01  -7.5 6.14e+02 -10.7 6.28e-01 1.95e-01h  1
 338 -1.3989446e-01 9.57e+00 2.51e+01  -7.5 1.35e+03    -  7.16e-01 4.88e-01h  1
 339 -1.3992682e-01 8.05e+00 3.55e+01  -7.5 1.96e+03    -  4.88e-01 1.62e-01h  1
iter    objective    inf_pr   inf_du lg(mu)  ||d||  lg(rg) alpha_du alpha_pr  ls
 340 -1.4000624e-01 1.13e+01 2.26e+01  -7.5 1.89e+03    -  3.16e-01 4.31e-01h  1
 341 -1.4004162e-01 1.90e+01 5.90e+01  -7.5 6.37e+03    -  2.02e-02 1.28e-01h  1
 342 -1.4004718e-01 1.83e+01 6.83e+01  -7.5 1.75e+03 -10.3 3.36e-03 3.46e-02h  1
 343 -1.4010243e-01 1.36e+01 9.41e+02  -7.5 1.03e+03 -10.7 6.25e-02 3.92e-01h  1
 344 -1.4010768e-01 1.31e+01 9.11e+02  -7.5 6.30e+03 -11.2 7.76e-03 3.05e-02h  1
 345 -1.4014655e-01 9.51e+00 4.13e+02  -7.5 1.02e+03    -  9.45e-02 2.77e-01h  1
 346 -1.4016809e-01 8.43e+00 7.89e+02  -7.5 1.27e+02  -7.2 1.15e-02 1.13e-01h  1
 347 -1.4020315e-01 2.49e+00 3.37e+03  -7.5 1.36e+02  -7.6 1.43e-02 7.04e-01f  1
 348 -1.4021973e-01 2.25e+00 3.04e+03  -7.5 3.03e+02  -8.1 3.21e-02 9.77e-02f  1
 349 -1.4033790e-01 5.16e-01 2.79e+01  -7.5 6.01e+01  -8.6 7.66e-01 1.00e+00h  1
iter    objective    inf_pr   inf_du lg(mu)  ||d||  lg(rg) alpha_du alpha_pr  ls
 350 -1.4040555e-01 1.25e+00 1.16e+01  -7.5 3.45e+02  -9.1 2.06e-01 5.86e-01h  1
 351 -1.4041114e-01 1.21e+00 8.25e+01  -7.5 9.62e+03    -  7.11e-02 2.96e-02h  1
 352 -1.4042731e-01 1.78e+00 4.12e+01  -7.5 3.50e+03    -  6.27e-02 8.41e-02h  1
 353 -1.4049003e-01 7.11e+01 3.11e+02  -7.5 9.89e+03    -  2.31e-02 2.22e-01h  1
 354 -1.4049278e-01 6.70e+01 8.18e+02  -7.5 3.16e+03    -  5.13e-01 6.61e-02h  1
 355 -1.4059529e-01 5.54e+01 3.75e+02  -7.5 1.89e+03    -  5.56e-01 8.95e-01h  1
 356 -1.4061009e-01 4.74e+01 6.94e+02  -7.5 1.69e+03    -  2.37e-01 1.73e-01h  1
 357 -1.4061388e-01 3.94e+01 5.82e+05  -7.5 1.67e+03    -  1.03e-03 6.97e-01h  1
 358 -1.4061185e-01 1.16e+01 6.72e+02  -7.5 7.52e+02    -  3.10e-02 1.00e+00h  1
 359 -1.4060692e-01 2.68e+00 9.03e+00  -7.5 3.83e+02    -  1.93e-01 1.00e+00h  1
iter    objective    inf_pr   inf_du lg(mu)  ||d||  lg(rg) alpha_du alpha_pr  ls
 360 -1.4060707e-01 7.11e-03 8.17e-02  -7.5 1.09e+01  -9.6 1.00e+00 1.00e+00h  1
 361 -1.4061905e-01 1.60e+01 6.97e+01  -7.5 2.71e+03    -  1.01e-01 3.40e-01h  1
 362 -1.4060924e-01 1.06e+01 4.18e+01  -7.5 7.41e+02    -  1.00e+00 1.00e+00h  1
 363 -1.4061929e-01 1.16e+01 4.65e+01  -7.5 7.67e+02    -  1.00e+00 1.00e+00h  1
 364 -1.4062011e-01 6.02e-02 1.88e+00  -7.5 5.43e+01    -  1.00e+00 1.00e+00h  1
 365 -1.4062000e-01 1.22e-03 1.69e-02  -7.5 7.86e+00    -  1.00e+00 1.00e+00h  1
 366 -1.4062001e-01 5.85e-06 4.27e-05  -7.5 5.39e-01    -  1.00e+00 1.00e+00h  1
 367 -1.4062001e-01 1.26e-08 8.40e-08  -7.5 2.51e-02    -  1.00e+00 1.00e+00h  1
 368 -1.4062327e-01 9.23e-02 2.40e+00  -9.0 2.59e+02    -  2.88e-01 3.04e-01h  1
 369 -1.4063018e-01 2.10e+01 7.95e+01  -9.0 1.17e+05    -  2.17e-02 8.78e-03h  1
iter    objective    inf_pr   inf_du lg(mu)  ||d||  lg(rg) alpha_du alpha_pr  ls
 370 -1.4063789e-01 2.77e+01 1.19e+02  -9.0 3.62e+03    -  1.86e-01 2.32e-01h  1
 371 -1.4064254e-01 2.74e+01 1.26e+02  -9.0 4.34e+03    -  2.91e-01 1.62e-01h  1
 372 -1.4064966e-01 4.42e+01 1.33e+02  -9.0 3.43e+03    -  3.20e-01 3.66e-01h  1
 373 -1.4065356e-01 4.07e+01 2.54e+01  -9.0 1.55e+03    -  1.00e-02 8.19e-01h  1
 374 -1.4065068e-01 1.55e-01 7.70e+00  -9.0 1.02e+02    -  4.01e-02 1.00e+00h  1
 375 -1.4065131e-01 8.47e-02 7.37e-01  -9.0 6.42e+01    -  1.00e+00 1.00e+00h  1
 376 -1.4065129e-01 2.12e-02 8.98e-02  -9.0 3.22e+01    -  1.00e+00 1.00e+00h  1
 377 -1.4065129e-01 6.76e-08 1.75e-05  -9.0 3.78e-02    -  1.00e+00 1.00e+00h  1
 378 -1.4065129e-01 4.22e-10 2.60e-12  -9.0 2.81e-05    -  1.00e+00 1.00e+00h  1

Number of Iterations....: 378

                                   (scaled)                 (unscaled)
Objective...............:  -1.4065129089311898e-01   -1.4065129089311898e-01
Dual infeasibility......:   2.6005586573063511e-12    2.6005586573063511e-12
Constraint violation....:   4.2247509256156807e-10    4.2247509256156807e-10
Complementarity.........:   9.0909098741468637e-10    9.0909098741468637e-10
Overall NLP error.......:   9.0909098741468637e-10    9.0909098741468637e-10


Number of objective function evaluations             = 765
Number of objective gradient evaluations             = 378
Number of equality constraint evaluations            = 765
Number of inequality constraint evaluations          = 766
Number of equality constraint Jacobian evaluations   = 389
Number of inequality constraint Jacobian evaluations = 389
Number of Lagrangian Hessian evaluations             = 378
Total CPU secs in IPOPT (w/o function evaluations)   =    160.736
Total CPU secs in NLP function evaluations           =      6.942

EXIT: Optimal Solution Found.
